315
175.0 253.0 
180.0 253.0 
195.0 275.0 
170.0 240.0 
165.0 243.0 
190.0 258.0 
165.0 227.0 
170.0 241.0 
145.0 221.0 
170.0 240.0 
165.0 241.0 
150.0 171.0 
135.0 145.0 
175.0 253.0 
195.0 275.0 
180.0 253.0 
165.0 243.0 
190.0 258.0 
195.0 275.0 
145.0 221.0 
170.0 241.0 
180.0 253.0 
165.0 241.0 
170.0 240.0 
150.0 212.0 
135.0 145.0 
175.0 253.0 
180.0 253.0 
190.0 258.0 
195.0 275.0 
165.0 243.0 
165.0 227.0 
195.0 275.0 
145.0 221.0 
170.0 241.0 
170.0 240.0 
165.0 241.0 
150.0 212.0 
135.0 145.0 
180.0 253.0 
175.0 253.0 
195.0 275.0 
165.0 241.0 
170.0 241.0 
145.0 221.0 
170.0 240.0 
165.0 241.0 
150.0 212.0 
135.0 145.0 
180.0 253.0 
175.0 253.0 
195.0 275.0 
185.0 263.0 
190.0 258.0 
165.0 227.0 
170.0 241.0 
145.0 221.0 
170.0 240.0 
165.0 241.0 
150.0 212.0 
135.0 145.0 
175.0 253.0 
195.0 275.0 
165.0 242.0 
180.0 253.0 
195.0 275.0 
190.0 258.0 
165.0 227.0 
165.0 243.0 
170.0 241.0 
145.0 221.0 
170.0 240.0 
165.0 241.0 
150.0 212.0 
135.0 145.0 
175.0 253.0 
180.0 253.0 
190.0 258.0 
195.0 275.0 
165.0 243.0 
170.0 240.0 
165.0 227.0 
145.0 221.0 
170.0 241.0 
170.0 240.0 
165.0 241.0 
150.0 212.0 
135.0 145.0 
195.0 275.0 
180.0 253.0 
175.0 253.0 
165.0 243.0 
195.0 275.0 
145.0 221.0 
170.0 241.0 
170.0 240.0 
165.0 241.0 
150.0 212.0 
135.0 145.0 
195.0 275.0 
195.0 275.0 
180.0 253.0 
165.0 227.0 
190.0 258.0 
175.0 253.0 
170.0 241.0 
145.0 221.0 
170.0 240.0 
165.0 241.0 
150.0 171.0 
135.0 145.0 
180.0 253.0 
165.0 241.0 
175.0 253.0 
195.0 275.0 
190.0 258.0 
195.0 275.0 
195.0 275.0 
165.0 243.0 
165.0 227.0 
170.0 241.0 
145.0 221.0 
170.0 240.0 
165.0 241.0 
150.0 212.0 
135.0 145.0 
175.0 253.0 
140.0 225.0 
165.0 242.0 
165.0 227.0 
175.0 254.0 
165.0 243.0 
195.0 275.0 
185.0 263.0 
165.0 242.0 
165.0 243.0 
195.0 275.0 
170.0 240.0 
165.0 243.0 
165.0 243.0 
165.0 241.0 
145.0 221.0 
170.0 241.0 
180.0 253.0 
165.0 241.0 
170.0 240.0 
150.0 212.0 
195.0 275.0 
140.0 225.0 
165.0 243.0 
165.0 243.0 
180.0 253.0 
175.0 253.0 
165.0 242.0 
175.0 254.0 
165.0 243.0 
165.0 227.0 
195.0 275.0 
190.0 258.0 
170.0 240.0 
165.0 243.0 
165.0 243.0 
165.0 241.0 
185.0 263.0 
165.0 242.0 
195.0 275.0 
145.0 221.0 
180.0 253.0 
170.0 241.0 
165.0 241.0 
170.0 240.0 
150.0 212.0 
165.0 242.0 
175.0 254.0 
195.0 275.0 
165.0 227.0 
195.0 275.0 
170.0 240.0 
185.0 263.0 
175.0 253.0 
180.0 253.0 
165.0 243.0 
145.0 221.0 
170.0 241.0 
180.0 253.0 
170.0 240.0 
165.0 241.0 
150.0 212.0 
165.0 242.0 
175.0 254.0 
165.0 243.0 
185.0 263.0 
165.0 242.0 
165.0 227.0 
190.0 258.0 
195.0 275.0 
175.0 253.0 
140.0 225.0 
165.0 243.0 
165.0 243.0 
195.0 275.0 
170.0 240.0 
165.0 243.0 
165.0 243.0 
165.0 241.0 
180.0 253.0 
195.0 275.0 
145.0 221.0 
180.0 253.0 
170.0 241.0 
165.0 241.0 
170.0 240.0 
150.0 212.0 
175.0 253.0 
165.0 242.0 
175.0 254.0 
195.0 275.0 
165.0 227.0 
195.0 275.0 
170.0 240.0 
165.0 243.0 
165.0 243.0 
185.0 263.0 
165.0 242.0 
195.0 275.0 
165.0 243.0 
145.0 221.0 
170.0 241.0 
180.0 253.0 
170.0 240.0 
165.0 241.0 
150.0 212.0 
175.0 255.0 
145.0 221.0 
170.0 241.0 
170.0 240.0 
165.0 241.0 
150.0 212.0 
165.0 242.0 
195.0 275.0 
185.0 263.0 
165.0 242.0 
175.0 253.0 
175.0 254.0 
195.0 275.0 
165.0 227.0 
195.0 275.0 
170.0 240.0 
140.0 225.0 
145.0 221.0 
170.0 241.0 
180.0 253.0 
170.0 240.0 
165.0 241.0 
150.0 212.0 
175.0 254.0 
165.0 242.0 
175.0 253.0 
195.0 275.0 
165.0 227.0 
195.0 275.0 
190.0 258.0 
165.0 243.0 
165.0 243.0 
170.0 240.0 
185.0 263.0 
165.0 242.0 
195.0 275.0 
145.0 221.0 
180.0 253.0 
170.0 241.0 
170.0 240.0 
165.0 241.0 
150.0 212.0 
165.0 242.0 
165.0 227.0 
190.0 258.0 
175.0 254.0 
175.0 253.0 
140.0 225.0 
165.0 243.0 
165.0 243.0 
195.0 275.0 
170.0 240.0 
185.0 263.0 
195.0 275.0 
195.0 275.0 
145.0 221.0 
170.0 241.0 
180.0 253.0 
170.0 240.0 
165.0 241.0 
150.0 212.0 
165.0 227.0 
195.0 275.0 
195.0 275.0 
175.0 253.0 
140.0 225.0 
175.0 254.0 
165.0 242.0 
165.0 242.0 
165.0 243.0 
185.0 263.0 
190.0 258.0 
195.0 275.0 
170.0 240.0 
165.0 243.0 
165.0 243.0 
165.0 241.0 
180.0 253.0 
145.0 221.0 
170.0 241.0 
170.0 240.0 
165.0 241.0 
150.0 212.0 

0 27 28 16 17 4 3 2 6 5 12 8 7 9 10 11 20 21 25 30 19 18 31 
0 27 28 16 17 4 2 6 5 12 8 7 9 10 11 20 21 22 25 30 26 18 31 
0 27 28 16 17 4 6 2 1 7 8 9 10 11 20 21 22 25 30 26 19 18 12 5 31 
0 27 28 16 17 4 6 2 1 5 12 8 7 9 10 11 20 25 30 26 18 31 
0 18 19 26 30 25 22 21 20 11 10 9 8 7 1 2 6 4 5 12 17 31 
0 27 28 16 17 4 5 6 2 1 7 9 10 11 20 21 22 25 30 26 19 18 8 31 
0 17 16 28 27 18 19 26 30 25 22 21 20 11 10 9 8 7 1 6 31 
0 18 19 26 30 25 21 20 11 10 9 7 8 12 5 6 4 3 14 16 17 31 
0 17 27 28 16 14 13 3 4 6 5 12 8 7 9 10 11 19 18 31 
0 27 17 12 5 4 3 6 2 1 7 8 9 10 11 20 21 25 30 26 18 31 
0 27 17 12 5 6 4 3 2 1 7 8 9 10 11 20 21 25 30 19 18 31 
0 27 28 16 15 14 13 3 4 5 6 2 1 7 9 10 18 31 
0 27 16 15 14 13 3 4 5 6 2 1 7 9 10 31 
0 27 28 16 17 4 3 2 6 5 12 8 7 9 10 11 20 21 25 30 19 18 31 
0 27 28 16 17 4 6 2 1 7 8 9 10 11 20 21 22 25 30 26 19 18 12 5 31 
0 27 28 16 17 4 2 6 5 12 8 7 9 10 11 20 21 22 25 30 26 18 31 
0 18 19 26 30 25 22 21 20 11 10 9 7 8 12 5 6 2 3 4 17 31 
0 27 28 16 17 4 5 6 2 1 7 9 10 11 20 21 22 25 30 26 19 18 8 31 
0 27 28 16 17 12 5 4 6 2 1 7 8 9 10 11 20 21 22 25 30 26 19 18 31 
0 17 27 28 16 14 13 3 4 6 5 12 8 7 9 10 11 19 18 31 
0 18 19 26 30 25 21 20 11 10 9 7 8 12 5 6 4 3 14 16 17 31 
0 18 19 26 30 25 22 21 20 11 10 9 7 8 12 5 6 4 3 14 27 17 31 
0 27 17 12 5 6 4 3 2 1 7 8 9 10 11 20 21 25 30 19 18 31 
0 27 17 12 5 4 3 6 2 1 7 8 9 10 11 20 21 25 30 26 18 31 
0 27 17 14 13 3 4 5 6 2 1 7 8 9 10 11 20 19 18 31 
0 27 16 15 14 13 3 4 5 6 2 1 7 9 10 31 
0 27 28 16 17 4 3 2 6 5 12 8 7 9 10 11 20 21 25 30 19 18 31 
0 27 28 16 17 4 2 6 5 12 8 7 9 10 11 20 21 22 25 30 26 18 31 
0 27 28 16 17 4 5 6 2 1 7 9 10 11 20 21 22 25 30 26 19 18 8 31 
0 27 28 16 17 4 6 2 1 7 8 9 10 11 20 21 22 25 30 26 19 18 12 5 31 
0 18 19 26 30 25 22 21 20 11 10 9 8 7 1 2 6 4 5 12 17 31 
0 17 16 28 27 18 19 26 30 25 22 21 20 11 10 9 8 7 1 6 31 
0 27 28 16 17 12 5 4 6 2 1 7 8 9 10 11 20 21 22 25 30 26 19 18 31 
0 17 27 28 16 14 13 3 4 6 5 12 8 7 9 10 11 19 18 31 
0 18 19 26 30 25 21 20 11 10 9 7 8 12 5 6 4 3 14 16 17 31 
0 27 17 12 5 4 3 6 2 1 7 8 9 10 11 20 21 25 30 26 18 31 
0 27 17 12 5 6 4 3 2 1 7 8 9 10 11 20 21 25 30 19 18 31 
0 27 17 14 13 3 4 5 6 2 1 7 8 9 10 11 20 19 18 31 
0 27 16 15 14 13 3 4 5 6 2 1 7 9 10 31 
0 27 28 16 17 4 2 6 5 12 8 7 9 10 11 20 21 22 25 30 26 18 31 
0 27 28 16 17 4 3 2 6 5 12 8 7 9 10 11 20 21 25 30 19 18 31 
0 27 28 16 17 4 5 6 2 1 7 8 9 10 11 20 21 22 25 30 26 19 18 12 31 
0 27 28 16 17 4 2 1 6 5 12 8 7 9 10 11 20 25 30 19 18 31 
0 18 19 26 30 25 21 20 11 10 9 7 8 12 5 6 4 3 14 16 17 31 
0 17 27 28 16 14 13 3 4 6 5 12 8 7 9 10 11 19 18 31 
0 27 17 12 5 4 3 6 2 1 7 8 9 10 11 20 21 25 30 26 18 31 
0 27 17 12 5 6 4 3 2 1 7 8 9 10 11 20 21 25 30 19 18 31 
0 27 17 14 13 3 4 5 6 2 1 7 8 9 10 11 20 19 18 31 
0 27 16 15 14 13 3 4 5 6 2 1 7 9 10 31 
0 27 28 16 17 4 2 6 5 12 8 7 9 10 11 20 21 22 25 30 26 18 31 
0 27 28 16 17 4 3 2 6 5 12 8 7 9 10 11 20 21 25 30 19 18 31 
0 27 28 16 17 4 6 2 1 7 8 9 10 11 20 21 22 25 30 26 19 18 12 5 31 
0 27 28 16 17 4 5 6 2 1 12 8 7 9 10 11 20 21 22 25 30 19 18 31 
0 27 28 16 17 4 5 6 2 1 7 9 10 11 20 21 22 25 30 26 19 18 8 31 
0 17 16 28 27 18 19 26 30 25 22 21 20 11 10 9 8 7 1 6 31 
0 18 19 26 30 25 21 20 11 10 9 7 8 12 5 6 4 3 14 16 17 31 
0 17 27 28 16 14 13 3 4 6 5 12 8 7 9 10 11 19 18 31 
0 27 17 12 5 4 3 6 2 1 7 8 9 10 11 20 21 25 30 26 18 31 
0 27 17 12 5 6 4 3 2 1 7 8 9 10 11 20 21 25 30 19 18 31 
0 27 17 14 13 3 4 5 6 2 1 7 8 9 10 11 20 19 18 31 
0 27 16 15 14 13 3 4 5 6 2 1 7 9 10 31 
0 27 28 16 17 4 3 2 6 5 12 8 7 9 10 11 20 21 25 30 19 18 31 
0 27 28 16 17 4 6 2 1 7 8 9 10 11 20 21 22 25 30 26 19 18 12 5 31 
0 12 18 19 26 30 25 22 21 20 11 10 9 8 7 1 2 6 5 17 27 31 
0 27 28 16 17 4 2 6 5 12 8 7 9 10 11 20 21 22 25 30 26 18 31 
0 27 28 16 17 4 5 6 2 1 7 8 9 10 11 20 21 22 25 30 26 19 18 12 31 
0 27 28 16 17 4 5 6 2 1 7 9 10 11 20 21 22 25 30 26 19 18 8 31 
0 17 16 28 27 18 19 26 30 25 22 21 20 11 10 9 8 7 1 6 31 
0 18 19 26 30 25 22 21 20 11 10 9 7 8 12 5 6 1 2 4 17 31 
0 18 19 26 30 25 21 20 11 10 9 7 8 12 5 6 4 3 14 16 17 31 
0 17 27 28 16 14 13 3 4 6 5 12 8 7 9 10 11 19 18 31 
0 27 17 12 5 4 3 6 2 1 7 8 9 10 11 20 21 25 30 26 18 31 
0 27 17 12 5 6 4 3 2 1 7 8 9 10 11 20 21 25 30 19 18 31 
0 27 17 14 13 3 4 5 6 2 1 7 8 9 10 11 20 19 18 31 
0 27 16 15 14 13 3 4 5 6 2 1 7 9 10 31 
0 27 28 16 17 4 3 2 6 5 12 8 7 9 10 11 20 21 25 30 19 18 31 
0 27 28 16 17 4 2 6 5 12 8 7 9 10 11 20 21 22 25 30 26 18 31 
0 27 28 16 17 4 5 6 2 1 7 9 10 11 20 21 22 25 30 26 19 18 8 31 
0 27 28 16 17 4 6 2 1 7 8 9 10 11 20 21 22 25 30 26 19 18 12 5 31 
0 18 19 26 30 25 22 21 20 11 10 9 8 7 1 2 6 4 5 12 17 31 
0 27 28 16 17 4 6 2 1 5 12 8 7 9 10 11 20 25 30 26 18 31 
0 17 16 28 27 18 19 26 30 25 22 21 20 11 10 9 8 7 1 6 31 
0 17 27 28 16 14 13 3 4 6 5 12 8 7 9 10 11 19 18 31 
0 18 19 26 30 25 21 20 11 10 9 7 8 12 5 6 4 3 14 16 17 31 
0 27 17 12 5 4 3 6 2 1 7 8 9 10 11 20 21 25 30 26 18 31 
0 27 17 12 5 6 4 3 2 1 7 8 9 10 11 20 21 25 30 19 18 31 
0 27 17 14 13 3 4 5 6 2 1 7 8 9 10 11 20 19 18 31 
0 27 16 15 14 13 3 4 5 6 2 1 7 9 10 31 
0 27 28 16 17 4 6 2 1 7 8 9 10 11 20 21 22 25 30 26 19 18 12 5 31 
0 27 28 16 17 4 2 6 5 12 8 7 9 10 11 20 21 22 25 30 26 18 31 
0 27 28 16 17 4 3 2 6 5 12 8 7 9 10 11 20 21 25 30 19 18 31 
0 18 19 26 30 25 22 21 20 11 10 9 7 8 12 5 6 2 3 4 17 31 
0 27 28 16 17 12 5 4 6 2 1 7 8 9 10 11 20 21 22 25 30 26 19 18 31 
0 17 27 28 16 14 13 3 4 6 5 12 8 7 9 10 11 19 18 31 
0 18 19 26 30 25 21 20 11 10 9 7 8 12 5 6 4 3 14 16 17 31 
0 27 17 12 5 4 3 6 2 1 7 8 9 10 11 20 21 25 30 26 18 31 
0 27 17 12 5 6 4 3 2 1 7 8 9 10 11 20 21 25 30 19 18 31 
0 27 17 14 13 3 4 5 6 2 1 7 8 9 10 11 20 19 18 31 
0 27 16 15 14 13 3 4 5 6 2 1 7 9 10 31 
0 27 28 16 17 4 6 2 1 7 8 9 10 11 20 21 22 25 30 26 19 18 12 5 31 
0 27 28 16 17 12 5 4 6 2 1 7 8 9 10 11 20 21 22 25 30 26 19 18 31 
0 27 28 16 17 4 2 6 5 12 8 7 9 10 11 20 21 22 25 30 26 18 31 
0 17 16 28 27 18 19 26 30 25 22 21 20 11 10 9 8 7 1 6 31 
0 27 28 16 17 4 5 6 2 1 7 9 10 11 20 21 22 25 30 26 19 18 8 31 
0 27 28 16 17 4 3 2 6 5 12 8 7 9 10 11 20 21 25 30 19 18 31 
0 18 19 26 30 25 21 20 11 10 9 7 8 12 5 6 4 3 14 16 17 31 
0 17 27 28 16 14 13 3 4 6 5 12 8 7 9 10 11 19 18 31 
0 27 17 12 5 4 3 6 2 1 7 8 9 10 11 20 21 25 30 26 18 31 
0 27 17 12 5 6 4 3 2 1 7 8 9 10 11 20 21 25 30 19 18 31 
0 27 28 16 15 14 13 3 4 5 6 2 1 7 9 10 18 31 
0 27 16 15 14 13 3 4 5 6 2 1 7 9 10 31 
0 27 28 16 17 4 2 6 5 12 8 7 9 10 11 20 21 22 25 30 26 18 31 
0 27 28 16 17 4 2 1 6 5 12 8 7 9 10 11 20 25 30 19 18 31 
0 27 28 16 17 4 3 2 6 5 12 8 7 9 10 11 20 21 25 30 19 18 31 
0 27 28 16 17 4 6 2 1 7 8 9 10 11 20 21 22 25 30 26 19 18 12 5 31 
0 27 28 16 17 4 5 6 2 1 7 9 10 11 20 21 22 25 30 26 19 18 8 31 
0 27 28 16 17 12 5 4 6 2 1 7 8 9 10 11 20 21 22 25 30 26 19 18 31 
0 27 28 16 17 4 5 6 2 1 7 8 9 10 11 20 21 22 25 30 26 19 18 12 31 
0 18 19 26 30 25 22 21 20 11 10 9 8 7 1 2 6 4 5 12 17 31 
0 17 16 28 27 18 19 26 30 25 22 21 20 11 10 9 8 7 1 6 31 
0 18 19 26 30 25 21 20 11 10 9 7 8 12 5 6 4 3 14 16 17 31 
0 17 27 28 16 14 13 3 4 6 5 12 8 7 9 10 11 19 18 31 
0 27 17 12 5 4 3 6 2 1 7 8 9 10 11 20 21 25 30 26 18 31 
0 27 17 12 5 6 4 3 2 1 7 8 9 10 11 20 21 25 30 19 18 31 
0 27 17 14 13 3 4 5 6 2 1 7 8 9 10 11 20 19 18 31 
0 27 16 15 14 13 3 4 5 6 2 1 7 9 10 31 
0 27 28 16 17 4 3 2 6 5 12 8 7 9 10 11 20 21 25 30 19 18 31 
0 27 28 16 17 5 4 3 2 6 12 8 7 9 10 11 20 19 18 31 
0 12 18 19 26 30 25 22 21 20 11 10 9 8 7 1 2 6 5 17 27 31 
0 17 16 28 27 18 19 26 30 25 22 21 20 11 10 9 8 7 1 6 31 
0 12 5 4 6 2 1 7 8 9 10 11 20 21 22 25 30 26 19 18 27 17 31 
0 18 19 26 30 25 22 21 20 11 10 9 8 7 1 2 6 4 5 12 17 31 
0 27 28 16 17 4 5 6 2 1 7 8 9 10 11 20 21 22 25 30 26 19 18 12 31 
0 27 28 16 17 4 5 6 2 1 12 8 7 9 10 11 20 21 22 25 30 19 18 31 
0 18 19 26 30 25 22 21 20 11 10 9 7 8 12 1 2 6 5 17 27 31 
0 18 19 26 30 25 22 21 20 11 10 9 7 8 12 5 6 2 3 4 17 31 
0 27 28 16 17 12 5 4 6 2 1 7 8 9 10 11 20 21 22 25 30 26 19 18 31 
0 27 28 16 17 4 6 2 1 5 12 8 7 9 10 11 20 25 30 26 18 31 
0 18 19 26 30 25 22 21 20 11 10 9 7 8 12 5 1 2 6 4 17 31 
0 18 19 26 30 25 22 21 20 11 10 9 7 8 12 5 6 1 2 4 17 31 
0 27 28 16 17 4 2 1 6 5 12 8 7 9 10 11 20 25 30 19 18 31 
0 17 27 28 16 14 13 3 4 6 5 12 8 7 9 10 11 19 18 31 
0 18 19 26 30 25 21 20 11 10 9 7 8 12 5 6 4 3 14 16 17 31 
0 18 19 26 30 25 22 21 20 11 10 9 7 8 12 5 6 4 3 14 27 17 31 
0 27 17 12 5 6 4 3 2 1 7 8 9 10 11 20 21 25 30 19 18 31 
0 27 17 12 5 4 3 6 2 1 7 8 9 10 11 20 21 25 30 26 18 31 
0 27 17 14 13 3 4 5 6 2 1 7 8 9 10 11 20 19 18 31 
0 27 28 16 17 4 6 2 1 7 8 9 10 11 20 21 22 25 30 26 19 18 12 5 31 
0 27 28 16 17 5 4 3 2 6 12 8 7 9 10 11 20 19 18 31 
0 18 19 26 30 25 22 21 20 11 10 9 7 8 12 6 2 3 4 5 17 31 
0 18 19 26 30 25 22 21 20 11 10 9 7 8 12 5 6 2 3 4 17 31 
0 27 28 16 17 4 2 6 5 12 8 7 9 10 11 20 21 22 25 30 26 18 31 
0 27 28 16 17 4 3 2 6 5 12 8 7 9 10 11 20 21 25 30 19 18 31 
0 12 18 19 26 30 25 22 21 20 11 10 9 8 7 1 2 6 5 17 27 31 
0 12 5 4 6 2 1 7 8 9 10 11 20 21 22 25 30 26 19 18 27 17 31 
0 18 19 26 30 25 22 21 20 11 10 9 8 7 1 2 6 4 5 12 17 31 
0 17 16 28 27 18 19 26 30 25 22 21 20 11 10 9 8 7 1 6 31 
0 27 28 16 17 4 5 6 2 1 7 8 9 10 11 20 21 22 25 30 26 19 18 12 31 
0 27 28 16 17 4 5 6 2 1 7 9 10 11 20 21 22 25 30 26 19 18 8 31 
0 27 28 16 17 4 6 2 1 5 12 8 7 9 10 11 20 25 30 26 18 31 
0 18 19 26 30 25 22 21 20 11 10 9 7 8 12 5 1 2 6 4 17 31 
0 18 19 26 30 25 22 21 20 11 10 9 7 8 12 5 6 1 2 4 17 31 
0 27 28 16 17 4 2 1 6 5 12 8 7 9 10 11 20 25 30 19 18 31 
0 27 28 16 17 4 5 6 2 1 12 8 7 9 10 11 20 21 22 25 30 19 18 31 
0 18 19 26 30 25 22 21 20 11 10 9 7 8 12 1 2 6 5 17 27 31 
0 27 28 16 17 12 5 4 6 2 1 7 8 9 10 11 20 21 22 25 30 26 19 18 31 
0 17 27 28 16 14 13 3 4 6 5 12 8 7 9 10 11 19 18 31 
0 18 19 26 30 25 22 21 20 11 10 9 7 8 12 5 6 4 3 14 27 17 31 
0 18 19 26 30 25 21 20 11 10 9 7 8 12 5 6 4 3 14 16 17 31 
0 27 17 12 5 6 4 3 2 1 7 8 9 10 11 20 21 25 30 19 18 31 
0 27 17 12 5 4 3 6 2 1 7 8 9 10 11 20 21 25 30 26 18 31 
0 27 17 14 13 3 4 5 6 2 1 7 8 9 10 11 20 19 18 31 
0 12 18 19 26 30 25 22 21 20 11 10 9 8 7 1 2 6 5 17 27 31 
0 12 5 4 6 2 1 7 8 9 10 11 20 21 22 25 30 26 19 18 27 17 31 
0 27 28 16 17 4 5 6 2 1 7 8 9 10 11 20 21 22 25 30 26 19 18 12 31 
0 17 16 28 27 18 19 26 30 25 22 21 20 11 10 9 8 7 1 6 31 
0 27 28 16 17 4 6 2 1 7 8 9 10 11 20 21 22 25 30 26 19 18 12 5 31 
0 27 28 16 17 4 6 2 1 5 12 8 7 9 10 11 20 25 30 26 18 31 
0 27 28 16 17 4 5 6 2 1 12 8 7 9 10 11 20 21 22 25 30 19 18 31 
0 27 28 16 17 4 3 2 6 5 12 8 7 9 10 11 20 21 25 30 19 18 31 
0 27 28 16 17 4 2 6 5 12 8 7 9 10 11 20 21 22 25 30 26 18 31 
0 18 19 26 30 25 22 21 20 11 10 9 8 7 1 2 6 4 5 12 17 31 
0 17 27 28 16 14 13 3 4 6 5 12 8 7 9 10 11 19 18 31 
0 18 19 26 30 25 21 20 11 10 9 7 8 12 5 6 4 3 14 16 17 31 
0 18 19 26 30 25 22 21 20 11 10 9 7 8 12 5 6 4 3 14 27 17 31 
0 27 17 12 5 4 3 6 2 1 7 8 9 10 11 20 21 25 30 26 18 31 
0 27 17 12 5 6 4 3 2 1 7 8 9 10 11 20 21 25 30 19 18 31 
0 27 17 14 13 3 4 5 6 2 1 7 8 9 10 11 20 19 18 31 
0 12 18 19 26 30 25 22 21 20 11 10 9 8 7 1 2 6 5 17 27 31 
0 12 5 4 6 2 1 7 8 9 10 11 20 21 22 25 30 26 19 18 27 17 31 
0 18 19 26 30 25 22 21 20 11 10 9 8 7 1 2 6 4 5 12 17 31 
0 27 28 16 17 4 5 6 2 1 12 8 7 9 10 11 20 21 22 25 30 19 18 31 
0 18 19 26 30 25 22 21 20 11 10 9 7 8 12 1 2 6 5 17 27 31 
0 17 16 28 27 18 19 26 30 25 22 21 20 11 10 9 8 7 1 6 31 
0 27 28 16 17 4 5 6 2 1 7 9 10 11 20 21 22 25 30 26 19 18 8 31 
0 27 28 16 17 4 5 6 2 1 7 8 9 10 11 20 21 22 25 30 26 19 18 12 31 
0 27 28 16 17 4 3 2 6 5 12 8 7 9 10 11 20 21 25 30 19 18 31 
0 27 28 16 17 5 4 3 2 6 12 8 7 9 10 11 20 19 18 31 
0 18 19 26 30 25 22 21 20 11 10 9 7 8 12 6 2 3 4 5 17 31 
0 18 19 26 30 25 22 21 20 11 10 9 7 8 12 5 6 2 3 4 17 31 
0 27 28 16 17 4 6 2 1 7 8 9 10 11 20 21 22 25 30 26 19 18 12 5 31 
0 27 28 16 17 4 6 2 1 5 12 8 7 9 10 11 20 25 30 26 18 31 
0 18 19 26 30 25 22 21 20 11 10 9 7 8 12 5 1 2 6 4 17 31 
0 18 19 26 30 25 22 21 20 11 10 9 7 8 12 5 6 1 2 4 17 31 
0 27 28 16 17 4 2 1 6 5 12 8 7 9 10 11 20 25 30 19 18 31 
0 27 28 16 17 4 2 6 5 12 8 7 9 10 11 20 21 22 25 30 26 18 31 
0 27 28 16 17 12 5 4 6 2 1 7 8 9 10 11 20 21 22 25 30 26 19 18 31 
0 17 27 28 16 14 13 3 4 6 5 12 8 7 9 10 11 19 18 31 
0 18 19 26 30 25 22 21 20 11 10 9 7 8 12 5 6 4 3 14 27 17 31 
0 18 19 26 30 25 21 20 11 10 9 7 8 12 5 6 4 3 14 16 17 31 
0 27 17 12 5 6 4 3 2 1 7 8 9 10 11 20 21 25 30 19 18 31 
0 27 17 12 5 4 3 6 2 1 7 8 9 10 11 20 21 25 30 26 18 31 
0 27 17 14 13 3 4 5 6 2 1 7 8 9 10 11 20 19 18 31 
0 27 28 16 17 4 3 2 6 5 12 8 7 9 10 11 20 21 25 30 19 18 31 
0 12 18 19 26 30 25 22 21 20 11 10 9 8 7 1 2 6 5 17 27 31 
0 12 5 4 6 2 1 7 8 9 10 11 20 21 22 25 30 26 19 18 27 17 31 
0 27 28 16 17 4 5 6 2 1 7 8 9 10 11 20 21 22 25 30 26 19 18 12 31 
0 17 16 28 27 18 19 26 30 25 22 21 20 11 10 9 8 7 1 6 31 
0 27 28 16 17 4 6 2 1 7 8 9 10 11 20 21 22 25 30 26 19 18 12 5 31 
0 27 28 16 17 4 6 2 1 5 12 8 7 9 10 11 20 25 30 26 18 31 
0 18 19 26 30 25 22 21 20 11 10 9 7 8 12 5 1 2 6 4 17 31 
0 18 19 26 30 25 22 21 20 11 10 9 7 8 12 5 6 2 3 4 17 31 
0 27 28 16 17 4 5 6 2 1 12 8 7 9 10 11 20 21 22 25 30 19 18 31 
0 18 19 26 30 25 22 21 20 11 10 9 7 8 12 1 2 6 5 17 27 31 
0 27 28 16 17 12 5 4 6 2 1 7 8 9 10 11 20 21 22 25 30 26 19 18 31 
0 18 19 26 30 25 22 21 20 11 10 9 8 7 1 2 6 4 5 12 17 31 
0 17 27 28 16 14 13 3 4 6 5 12 8 7 9 10 11 19 18 31 
0 18 19 26 30 25 21 20 11 10 9 7 8 12 5 6 4 3 14 16 17 31 
0 18 19 26 30 25 22 21 20 11 10 9 7 8 12 5 6 4 3 14 27 17 31 
0 27 17 12 5 4 3 6 2 1 7 8 9 10 11 20 21 25 30 26 18 31 
0 27 17 12 5 6 4 3 2 1 7 8 9 10 11 20 21 25 30 19 18 31 
0 27 17 14 13 3 4 5 6 2 1 7 8 9 10 11 20 19 18 31 
0 27 28 16 17 4 3 6 5 12 1 7 8 9 10 11 20 21 25 30 19 18 31 
0 17 27 28 16 14 13 3 4 6 5 12 8 7 9 10 11 19 18 31 
0 18 19 26 30 25 21 20 11 10 9 7 8 12 5 6 4 3 14 16 17 31 
0 27 17 12 5 4 3 6 2 1 7 8 9 10 11 20 21 25 30 26 18 31 
0 27 17 12 5 6 4 3 2 1 7 8 9 10 11 20 21 25 30 19 18 31 
0 27 17 14 13 3 4 5 6 2 1 7 8 9 10 11 20 19 18 31 
0 12 18 19 26 30 25 22 21 20 11 10 9 8 7 1 2 6 5 17 27 31 
0 27 28 16 17 4 6 2 1 7 8 9 10 11 20 21 22 25 30 26 19 18 12 5 31 
0 27 28 16 17 4 5 6 2 1 12 8 7 9 10 11 20 21 22 25 30 19 18 31 
0 18 19 26 30 25 22 21 20 11 10 9 7 8 12 1 2 6 5 17 27 31 
0 27 28 16 17 4 3 2 6 5 12 8 7 9 10 11 20 21 25 30 19 18 31 
0 12 5 4 6 2 1 7 8 9 10 11 20 21 22 25 30 26 19 18 27 17 31 
0 27 28 16 17 4 5 6 2 1 7 8 9 10 11 20 21 22 25 30 26 19 18 12 31 
0 17 16 28 27 18 19 26 30 25 22 21 20 11 10 9 8 7 1 6 31 
0 27 28 16 17 12 5 4 6 2 1 7 8 9 10 11 20 21 22 25 30 26 19 18 31 
0 27 28 16 17 4 6 2 1 5 12 8 7 9 10 11 20 25 30 26 18 31 
0 27 28 16 17 5 4 3 2 6 12 8 7 9 10 11 20 19 18 31 
0 17 27 28 16 14 13 3 4 6 5 12 8 7 9 10 11 19 18 31 
0 18 19 26 30 25 21 20 11 10 9 7 8 12 5 6 4 3 14 16 17 31 
0 18 19 26 30 25 22 21 20 11 10 9 7 8 12 5 6 4 3 14 27 17 31 
0 27 17 12 5 4 3 6 2 1 7 8 9 10 11 20 21 25 30 26 18 31 
0 27 17 12 5 6 4 3 2 1 7 8 9 10 11 20 21 25 30 19 18 31 
0 27 17 14 13 3 4 5 6 2 1 7 8 9 10 11 20 19 18 31 
0 12 5 4 6 2 1 7 8 9 10 11 20 21 22 25 30 26 19 18 27 17 31 
0 12 18 19 26 30 25 22 21 20 11 10 9 8 7 1 2 6 5 17 27 31 
0 27 28 16 17 4 3 2 6 5 12 8 7 9 10 11 20 21 25 30 19 18 31 
0 27 28 16 17 4 5 6 2 1 7 8 9 10 11 20 21 22 25 30 26 19 18 12 31 
0 17 16 28 27 18 19 26 30 25 22 21 20 11 10 9 8 7 1 6 31 
0 27 28 16 17 4 6 2 1 7 8 9 10 11 20 21 22 25 30 26 19 18 12 5 31 
0 27 28 16 17 4 5 6 2 1 7 9 10 11 20 21 22 25 30 26 19 18 8 31 
0 18 19 26 30 25 22 21 20 11 10 9 7 8 12 6 2 3 4 5 17 31 
0 18 19 26 30 25 22 21 20 11 10 9 7 8 12 5 6 2 3 4 17 31 
0 27 28 16 17 4 6 2 1 5 12 8 7 9 10 11 20 25 30 26 18 31 
0 27 28 16 17 4 5 6 2 1 12 8 7 9 10 11 20 21 22 25 30 19 18 31 
0 18 19 26 30 25 22 21 20 11 10 9 7 8 12 1 2 6 5 17 27 31 
0 27 28 16 17 12 5 4 6 2 1 7 8 9 10 11 20 21 22 25 30 26 19 18 31 
0 17 27 28 16 14 13 3 4 6 5 12 8 7 9 10 11 19 18 31 
0 18 19 26 30 25 22 21 20 11 10 9 7 8 12 5 6 4 3 14 27 17 31 
0 18 19 26 30 25 21 20 11 10 9 7 8 12 5 6 4 3 14 16 17 31 
0 27 17 12 5 4 3 6 2 1 7 8 9 10 11 20 21 25 30 26 18 31 
0 27 17 12 5 6 4 3 2 1 7 8 9 10 11 20 21 25 30 19 18 31 
0 27 17 14 13 3 4 5 6 2 1 7 8 9 10 11 20 19 18 31 
0 12 18 19 26 30 25 22 21 20 11 10 9 8 7 1 2 6 5 17 27 31 
0 17 16 28 27 18 19 26 30 25 22 21 20 11 10 9 8 7 1 6 31 
0 27 28 16 17 4 5 6 2 1 7 9 10 11 20 21 22 25 30 26 19 18 8 31 
0 12 5 4 6 2 1 7 8 9 10 11 20 21 22 25 30 26 19 18 27 17 31 
0 27 28 16 17 4 3 2 6 5 12 8 7 9 10 11 20 21 25 30 19 18 31 
0 27 28 16 17 5 4 3 2 6 12 8 7 9 10 11 20 19 18 31 
0 18 19 26 30 25 22 21 20 11 10 9 7 8 12 6 2 3 4 5 17 31 
0 18 19 26 30 25 22 21 20 11 10 9 8 7 1 2 6 4 5 12 17 31 
0 27 28 16 17 4 6 2 1 7 8 9 10 11 20 21 22 25 30 26 19 18 12 5 31 
0 27 28 16 17 4 6 2 1 5 12 8 7 9 10 11 20 25 30 26 18 31 
0 27 28 16 17 4 5 6 2 1 12 8 7 9 10 11 20 21 22 25 30 19 18 31 
0 27 28 16 17 4 5 6 2 1 7 8 9 10 11 20 21 22 25 30 26 19 18 12 31 
0 27 28 16 17 12 5 4 6 2 1 7 8 9 10 11 20 21 22 25 30 26 19 18 31 
0 17 27 28 16 14 13 3 4 6 5 12 8 7 9 10 11 19 18 31 
0 18 19 26 30 25 21 20 11 10 9 7 8 12 5 6 4 3 14 16 17 31 
0 18 19 26 30 25 22 21 20 11 10 9 7 8 12 5 6 4 3 14 27 17 31 
0 27 17 12 5 4 3 6 2 1 7 8 9 10 11 20 21 25 30 26 18 31 
0 27 17 12 5 6 4 3 2 1 7 8 9 10 11 20 21 25 30 19 18 31 
0 27 17 14 13 3 4 5 6 2 1 7 8 9 10 11 20 19 18 31 
0 17 16 28 27 18 19 26 30 25 22 21 20 11 10 9 8 7 1 6 31 
0 27 28 16 17 4 6 2 1 7 8 9 10 11 20 21 22 25 30 26 19 18 12 5 31 
0 27 28 16 17 4 5 6 2 1 7 8 9 10 11 20 21 22 25 30 26 19 18 12 31 
0 27 28 16 17 4 3 2 6 5 12 8 7 9 10 11 20 21 25 30 19 18 31 
0 27 28 16 17 5 4 3 2 6 12 8 7 9 10 11 20 19 18 31 
0 12 5 4 6 2 1 7 8 9 10 11 20 21 22 25 30 26 19 18 27 17 31 
0 12 18 19 26 30 25 22 21 20 11 10 9 8 7 1 2 6 5 17 27 31 
0 18 19 26 30 25 22 21 20 11 10 9 7 8 12 1 2 6 5 17 27 31 
0 18 19 26 30 25 22 21 20 11 10 9 7 8 12 5 6 2 3 4 17 31 
0 27 28 16 17 4 5 6 2 1 12 8 7 9 10 11 20 21 22 25 30 19 18 31 
0 27 28 16 17 4 5 6 2 1 7 9 10 11 20 21 22 25 30 26 19 18 8 31 
0 27 28 16 17 12 5 4 6 2 1 7 8 9 10 11 20 21 22 25 30 26 19 18 31 
0 27 28 16 17 4 6 2 1 5 12 8 7 9 10 11 20 25 30 26 18 31 
0 18 19 26 30 25 22 21 20 11 10 9 7 8 12 5 1 2 6 4 17 31 
0 18 19 26 30 25 22 21 20 11 10 9 7 8 12 5 6 1 2 4 17 31 
0 27 28 16 17 4 2 1 6 5 12 8 7 9 10 11 20 25 30 19 18 31 
0 27 28 16 17 4 2 6 5 12 8 7 9 10 11 20 21 22 25 30 26 18 31 
0 17 27 28 16 14 13 3 4 6 5 12 8 7 9 10 11 19 18 31 
0 18 19 26 30 25 21 20 11 10 9 7 8 12 5 6 4 3 14 16 17 31 
0 27 17 12 5 4 3 6 2 1 7 8 9 10 11 20 21 25 30 26 18 31 
0 27 17 12 5 6 4 3 2 1 7 8 9 10 11 20 21 25 30 19 18 31 
0 27 17 14 13 3 4 5 6 2 1 7 8 9 10 11 20 19 18 31 
